
List of user-set options:

                                    Name   Value                used
                acceptable_compl_inf_tol = 0.1                   yes
              acceptable_constr_viol_tol = 0.1                   yes
                         acceptable_iter = 0                     yes
               acceptable_obj_change_tol = 0.1                   yes
                          acceptable_tol = 0.01                  yes
                  bound_mult_init_method = mu-based              yes
                           compl_inf_tol = 0.001                 yes
                         constr_viol_tol = 0.001                 yes
                        file_print_level = 5                     yes
                   hessian_approximation = limited-memory        yes
                           linear_solver = mumps                 yes
                                max_iter = 200                   yes
                                 mu_init = 0.01                  yes
                             mu_strategy = adaptive              yes
                      nlp_scaling_method = gradient-based        yes
                             output_file = /Users/laurensvoet/Documents/Research/pyNA/pyNA/cases/stca/output//IPOPT_trajectory_convergence.out  yes
                             print_level = 5                     yes
                      print_user_options = yes                   yes
                                      sb = yes                   yes
                                     tol = 1e-06                 yes
This is Ipopt version 3.14.11, running with linear solver MUMPS 5.2.1.

Number of nonzeros in equality constraint Jacobian...:     1105
Number of nonzeros in inequality constraint Jacobian.:     5184
Number of nonzeros in Lagrangian Hessian.............:        0

Total number of variables............................:      169
                     variables with only lower bounds:        0
                variables with lower and upper bounds:      109
                     variables with only upper bounds:        0
Total number of equality constraints.................:      144
Total number of inequality constraints...............:      102
        inequality constraints with only lower bounds:      102
   inequality constraints with lower and upper bounds:        0
        inequality constraints with only upper bounds:        0

iter    objective    inf_pr   inf_du lg(mu)  ||d||  lg(rg) alpha_du alpha_pr  ls
   0  1.5000000e-01 5.00e+02 7.39e-01   0.0 0.00e+00    -  0.00e+00 0.00e+00   0
   1  1.4814260e-01 4.18e+02 3.08e+01  -0.4 9.78e+00    -  2.12e-02 1.64e-01f  1
   2  1.2569822e-01 1.73e-01 1.53e+01  -1.6 1.50e+00    -  5.31e-01 1.00e+00h  1
   3  1.3174452e-01 5.46e-02 1.99e+01  -1.3 9.72e-01    -  1.00e+00 1.00e+00h  1
   4  1.3290459e-01 3.58e-03 5.31e-01  -2.4 1.07e-01    -  1.00e+00 1.00e+00h  1
   5  1.3292543e-01 2.19e-04 1.50e-01  -3.6 3.86e-02    -  1.00e+00 1.00e+00h  1
   6  1.3253866e-01 2.81e-04 2.73e-02  -4.1 6.03e-02    -  1.00e+00 1.00e+00h  1
   7  1.2943651e-01 2.57e-02 8.58e-03  -4.4 4.04e-01    -  1.00e+00 1.00e+00h  1
   8  1.2876723e-01 7.96e-03 2.60e-03  -5.0 1.03e-01    -  1.00e+00 1.00e+00h  1
   9  1.2835850e-01 7.34e-03 1.58e-03  -5.4 3.37e-01    -  1.00e+00 1.00e+00h  1
iter    objective    inf_pr   inf_du lg(mu)  ||d||  lg(rg) alpha_du alpha_pr  ls
  10  1.2891085e-01 3.27e-03 2.19e-03  -4.8 3.08e-01    -  1.00e+00 1.00e+00h  1
  11  1.2846221e-01 2.58e-03 6.03e-04  -5.4 1.63e-01    -  1.00e+00 1.00e+00h  1
  12  1.2821115e-01 6.33e-03 9.49e-04  -6.0 4.73e-01    -  9.99e-01 1.00e+00h  1
  13  1.2819240e-01 8.17e-04 6.57e-04  -6.7 2.96e-01    -  1.00e+00 1.00e+00h  1
  14  1.2821528e-01 9.00e-04 3.85e-04  -6.8 1.45e-01    -  1.00e+00 1.00e+00h  1
  15  1.2821790e-01 5.11e-05 5.54e-05  -7.3 6.08e-02    -  1.00e+00 1.00e+00h  1
  16  1.2821882e-01 2.24e-05 7.33e-06  -7.8 1.08e-02    -  1.00e+00 1.00e+00h  1
  17  1.2821921e-01 5.59e-06 1.87e-04  -9.1 1.87e-04    -  1.00e+00 1.00e+00h  1
  18  1.2822019e-01 8.17e-07 3.86e-06  -7.7 1.00e-02    -  1.00e+00 1.00e+00h  1
  19  1.2821945e-01 1.12e-06 2.22e-05  -8.2 1.45e-02    -  1.00e+00 1.00e+00h  1
iter    objective    inf_pr   inf_du lg(mu)  ||d||  lg(rg) alpha_du alpha_pr  ls
  20  1.2821924e-01 2.63e-06 9.30e-06  -8.7 1.84e-03    -  1.00e+00 1.00e+00h  1
  21  1.2821928e-01 5.47e-07 1.51e-06  -9.6 6.80e-04    -  1.00e+00 1.00e+00h  1
  22  1.2821930e-01 3.34e-07 3.32e-07 -10.4 7.96e-05    -  1.00e+00 1.00e+00h  1

Number of Iterations....: 22

                                   (scaled)                 (unscaled)
Objective...............:   1.2821930019610520e-01    1.2821930019610520e-01
Dual infeasibility......:   3.3237291400439048e-07    3.3237291400439048e-07
Constraint violation....:   3.3380570196472608e-07    3.3380570196472608e-07
Variable bound violation:   0.0000000000000000e+00    0.0000000000000000e+00
Complementarity.........:   1.1510117335172068e-10    1.1510117335172068e-10
Overall NLP error.......:   3.3380570196472608e-07    3.3380570196472608e-07


Number of objective function evaluations             = 23
Number of objective gradient evaluations             = 23
Number of equality constraint evaluations            = 23
Number of inequality constraint evaluations          = 23
Number of equality constraint Jacobian evaluations   = 23
Number of inequality constraint Jacobian evaluations = 23
Number of Lagrangian Hessian evaluations             = 0
Total seconds in IPOPT                               = 32.348

EXIT: Optimal Solution Found.
